submitit INFO (2023-04-29 16:43:54,444) - Starting with JobEnvironment(job_id=27478, hostname=cpunode2, local_rank=4(5), node=0(1), global_rank=4(5))
submitit INFO (2023-04-29 16:43:54,444) - Loading pickle: /h/30/pashootan/Matrix-Mult-CP/src/../logs/2x2x2_3_Apr29_16:43:53/27478_submitted.pkl
 ! --------------------------------------------------- CP Optimizer 22.1.1.0 --
 ! Satisfiability problem - 36 variables, 150 constraints
 ! TimeLimit            = 7200
 ! Workers              = 8
 ! LogPeriod            = 10000000
 ! RandomSeed           = 3322
 ! Initial process time : 0.02s (0.02s extraction + 0.00s propagation)
 !  . Log search space  : 53.5 (before), 53.5 (after)
 !  . Memory usage      : 405.2 kB (before), 405.2 kB (after)
 ! Using parallel search with 8 workers.
 ! ----------------------------------------------------------------------------
 !               Branches  Non-fixed    W       Branch decision
 ! ----------------------------------------------------------------------------
 ! Search completed, model has no solution.
 ! ----------------------------------------------------------------------------
 ! Number of branches     : 4075
 ! Number of fails        : 2007
 ! Total memory usage     : 6.3 MB (6.3 MB CP Optimizer + 0.0 MB Concert)
 ! Time spent in solve    : 0.02s (0.00s engine + 0.02s extraction)
 ! Search speed (br. / s) : 407500.0
 ! ----------------------------------------------------------------------------
Infeasible
Saving stats to: /h/30/pashootan/Matrix-Mult-CP/logs/2x2x2_3_Apr29_16:43:53/27478_4_stats.csv
submitit INFO (2023-04-29 16:43:54,890) - Job completed successfully
